
Gurobi 9.5.2 (mac64[arm]) logging started Mon Apr 24 17:42:27 2023

Set parameter LogFile to value "Java/output/iterative_model/scenario_seed_3_nJob_50_machineCount_1/mip_increment_2/log.txt"
Gurobi Optimizer version 9.5.2 build v9.5.2rc0 (mac64[arm])
Thread count: 8 physical cores, 8 logical processors, using up to 8 threads
Optimize a model with 1470 rows, 10252 columns and 76965 nonzeros
Model fingerprint: 0x3ffe5d52
Variable types: 0 continuous, 10252 integer (10252 binary)
Coefficient statistics:
  Matrix range     [1e+00, 5e+02]
  Objective range  [2e+01, 2e+07]
  Bounds range     [1e+00, 1e+00]
  RHS range        [1e+00, 1e+00]
Found heuristic solution: objective 1.151491e+08
Presolve removed 37 rows and 523 columns
Presolve time: 0.08s
Presolved: 1433 rows, 9729 columns, 71340 nonzeros
Variable types: 0 continuous, 9729 integer (9721 binary)
Found heuristic solution: objective 1.057042e+08

Root relaxation: objective 1.420654e+04, 3087 iterations, 0.13 seconds (0.29 work units)

    Nodes    |    Current Node    |     Objective Bounds      |     Work
 Expl Unexpl |  Obj  Depth IntInf | Incumbent    BestBd   Gap | It/Node Time

     0     0 14206.5378    0  135 1.0570e+08 14206.5378   100%     -    0s
H    0     0                    6.952170e+07 14206.5378   100%     -    0s
H    0     0                    17216.000000 14206.5378  17.5%     -    0s
H    0     0                    16704.000000 14206.5378  15.0%     -    0s
     0     0 14246.1048    0  184 16704.0000 14246.1048  14.7%     -    0s
     0     0 14246.1048    0  138 16704.0000 14246.1048  14.7%     -    0s
H    0     0                    16608.000000 14246.1048  14.2%     -    0s
     0     0 14265.6121    0  191 16608.0000 14265.6121  14.1%     -    0s
     0     0 14269.4905    0  189 16608.0000 14269.4905  14.1%     -    0s
     0     0 14269.5516    0  196 16608.0000 14269.5516  14.1%     -    0s
     0     0 14269.5542    0  195 16608.0000 14269.5542  14.1%     -    0s
     0     0 14314.3648    0  244 16608.0000 14314.3648  13.8%     -    0s
     0     0 14315.5725    0  240 16608.0000 14315.5725  13.8%     -    0s
     0     0 14316.0733    0  240 16608.0000 14316.0733  13.8%     -    0s
     0     0 14316.0733    0  243 16608.0000 14316.0733  13.8%     -    1s
     0     0 14335.6396    0  289 16608.0000 14335.6396  13.7%     -    1s
     0     0 14336.3875    0  285 16608.0000 14336.3875  13.7%     -    1s
     0     0 14336.4788    0  287 16608.0000 14336.4788  13.7%     -    1s
     0     0 14336.4857    0  287 16608.0000 14336.4857  13.7%     -    1s
     0     0 14357.9910    0  289 16608.0000 14357.9910  13.5%     -    1s
     0     0 14358.9679    0  298 16608.0000 14358.9679  13.5%     -    1s
     0     0 14358.9986    0  309 16608.0000 14358.9986  13.5%     -    1s
     0     0 14374.8553    0  311 16608.0000 14374.8553  13.4%     -    1s
     0     0 14379.2739    0  309 16608.0000 14379.2739  13.4%     -    1s
     0     0 14379.6613    0  318 16608.0000 14379.6613  13.4%     -    1s
     0     0 14380.0402    0  316 16608.0000 14380.0402  13.4%     -    1s
     0     0 14380.0612    0  321 16608.0000 14380.0612  13.4%     -    1s
     0     0 14391.7617    0  328 16608.0000 14391.7617  13.3%     -    1s
     0     0 14396.3684    0  341 16608.0000 14396.3684  13.3%     -    1s
     0     0 14397.0874    0  340 16608.0000 14397.0874  13.3%     -    1s
     0     0 14397.1618    0  344 16608.0000 14397.1618  13.3%     -    1s
     0     0 14405.6849    0  332 16608.0000 14405.6849  13.3%     -    1s
     0     0 14406.8429    0  336 16608.0000 14406.8429  13.3%     -    1s
     0     0 14407.4893    0  352 16608.0000 14407.4893  13.2%     -    1s
     0     0 14407.7106    0  363 16608.0000 14407.7106  13.2%     -    1s
     0     0 14407.8914    0  357 16608.0000 14407.8914  13.2%     -    1s
H    0     0                    16480.000000 14407.8914  12.6%     -    1s
H    0     0                    16448.000000 14407.8914  12.4%     -    1s
     0     0 14420.1652    0  355 16448.0000 14420.1652  12.3%     -    1s
     0     0 14424.6604    0  359 16448.0000 14424.6604  12.3%     -    1s
     0     0 14426.7349    0  371 16448.0000 14426.7349  12.3%     -    1s
     0     0 14427.5643    0  370 16448.0000 14427.5643  12.3%     -    1s
     0     0 14427.8132    0  372 16448.0000 14427.8132  12.3%     -    1s
     0     0 14427.8878    0  377 16448.0000 14427.8878  12.3%     -    1s
     0     0 14439.9719    0  381 16448.0000 14439.9719  12.2%     -    2s
     0     0 14445.3153    0  385 16448.0000 14445.3153  12.2%     -    2s
     0     0 14448.3770    0  385 16448.0000 14448.3770  12.2%     -    2s
     0     0 14449.1167    0  398 16448.0000 14449.1167  12.2%     -    2s
     0     0 14449.2298    0  394 16448.0000 14449.2298  12.2%     -    2s
     0     0 14468.7849    0  409 16448.0000 14468.7849  12.0%     -    2s
     0     0 14474.1916    0  421 16448.0000 14474.1916  12.0%     -    2s
     0     0 14474.7578    0  431 16448.0000 14474.7578  12.0%     -    2s
     0     0 14474.9797    0  433 16448.0000 14474.9797  12.0%     -    2s
     0     0 14485.8197    0  411 16448.0000 14485.8197  11.9%     -    2s
H    0     0                    16256.000000 14485.8197  10.9%     -    2s
     0     0 14488.1947    0  425 16256.0000 14488.1947  10.9%     -    2s
     0     0 14489.4939    0  431 16256.0000 14489.4939  10.9%     -    2s
     0     0 14489.7917    0  446 16256.0000 14489.7917  10.9%     -    2s
H    0     0                    16192.000000 14489.7917  10.5%     -    2s
     0     0 14498.2974    0  442 16192.0000 14498.2974  10.5%     -    2s
     0     0 14499.9359    0  434 16192.0000 14499.9359  10.5%     -    2s
     0     0 14500.2743    0  439 16192.0000 14500.2743  10.4%     -    2s
H    0     0                    16160.000000 14500.2743  10.3%     -    2s
H    0     0                    15968.000000 14500.2743  9.19%     -    2s
     0     0 14506.2096    0  431 15968.0000 14506.2096  9.15%     -    2s
H    0     0                    15840.000000 14506.2096  8.42%     -    3s
     0     0 14508.0931    0  429 15840.0000 14508.0931  8.41%     -    3s
     0     0 14509.0894    0  451 15840.0000 14509.0894  8.40%     -    3s
     0     0 14509.3396    0  455 15840.0000 14509.3396  8.40%     -    3s
     0     0 14513.9266    0  432 15840.0000 14513.9266  8.37%     -    3s
     0     0 14515.2971    0  460 15840.0000 14515.2971  8.36%     -    3s
     0     0 14515.8568    0  458 15840.0000 14515.8568  8.36%     -    3s
     0     0 14516.1053    0  467 15840.0000 14516.1053  8.36%     -    3s
     0     0 14520.0824    0  434 15840.0000 14520.0824  8.33%     -    3s
     0     0 14520.7673    0  468 15840.0000 14520.7673  8.33%     -    3s
     0     0 14521.0969    0  456 15840.0000 14521.0969  8.33%     -    3s
     0     0 14523.3155    0  452 15840.0000 14523.3155  8.31%     -    3s
     0     0 14523.3155    0  452 15840.0000 14523.3155  8.31%     -    3s
     0     2 14523.4188    0  448 15840.0000 14523.4188  8.31%     -    4s
H   31    40                    15264.000000 14526.8053  4.83%   664    5s
H   69    77                    15200.000000 14526.8053  4.43%   608    5s
H   71    77                    15136.000000 14526.8053  4.02%   592    5s
H  111   110                    15104.000000 14526.8053  3.82%   586    6s
H  112   110                    15072.000000 14526.8053  3.62%   583    6s
H  148   139                    15040.000000 14526.8053  3.41%   573    7s
H  150   139                    14976.000000 14526.8053  3.00%   582    7s
H  154   139                    14912.000000 14526.8053  2.58%   577    7s
   317   236 14612.1176   20  388 14912.0000 14526.8053  2.58%   573   10s
   776   462 14810.9289   43  291 14912.0000 14526.8053  2.58%   509   15s
  1644   750 14611.9176   14  436 14912.0000 14589.6155  2.16%   448   20s
  2436  1141     cutoff   26      14912.0000 14607.2222  2.04%   442   25s
  2941  1332 14762.5620   20  466 14912.0000 14613.8599  2.00%   434   30s
  2967  1353 14613.8599   19  416 14912.0000 14613.8599  2.00%   443   35s
  3231  1423 14613.8599   30  413 14912.0000 14613.8599  2.00%   460   40s
  3624  1459     cutoff   52      14912.0000 14613.8599  2.00%   475   45s
  4083  1520 14628.4697   29  323 14912.0000 14613.8599  2.00%   500   50s
  4726  1524 14818.9478   28  305 14912.0000 14617.9491  1.97%   504   55s
  5539  1472     cutoff   36      14912.0000 14655.2455  1.72%   508   60s
  5984  1424     cutoff   41      14912.0000 14655.2455  1.72%   514   65s
  6720  1337     cutoff   30      14912.0000 14683.7333  1.53%   518   71s
  7410  1447 14711.9807   34  339 14912.0000 14694.5397  1.46%   525   76s
  7976  1609 14786.3533   38  374 14912.0000 14703.8163  1.40%   528   80s
  8735  1733 14811.4707   30  338 14912.0000 14712.4280  1.34%   529   86s
  9425  1902 14830.6353   38  379 14912.0000 14718.1157  1.30%   533   91s
 10103  2027 14769.6805   30  315 14912.0000 14725.5830  1.25%   532   95s
 10830  2120 14902.8067   31  201 14912.0000 14733.3781  1.20%   530  100s
 11660  2243     cutoff   39      14912.0000 14744.5860  1.12%   529  105s
 12434  2428 14828.0271   46  261 14912.0000 14749.2115  1.09%   529  110s
 13373  2501     cutoff   33      14912.0000 14752.4174  1.07%   529  117s
 13428  2549 14803.7071   35  241 14912.0000 14753.6582  1.06%   529  120s
 14562  2686     cutoff   35      14912.0000 14761.9910  1.01%   525  126s
 15068  2737     cutoff   35      14912.0000 14766.7511  0.97%   527  130s
 16242  2879     cutoff   45      14912.0000 14772.4817  0.94%   525  136s
 17418  3020     cutoff   33      14912.0000 14777.8396  0.90%   522  142s
 18011  3074 14909.2651   32  311 14912.0000 14780.9711  0.88%   522  145s
 19278  3119     cutoff   37      14912.0000 14787.2197  0.84%   520  152s
 19959  3104     cutoff   38      14912.0000 14791.4288  0.81%   519  156s
 20686  3130     cutoff   38      14912.0000 14795.6653  0.78%   518  160s
 22307  3077     cutoff   34      14912.0000 14803.4742  0.73%   513  168s
 23124  3060     cutoff   48      14912.0000 14808.2553  0.70%   511  172s
 24008  3013 14872.5455   26  267 14912.0000 14812.9854  0.66%   509  177s
 24948  2947     cutoff   39      14912.0000 14819.0026  0.62%   506  181s
 25799  2852     cutoff   37      14912.0000 14822.3862  0.60%   504  185s
 27648  2441 14859.3912   44  356 14912.0000 14832.0063  0.54%   499  193s
 28708  2137     cutoff   42      14912.0000 14839.8076  0.48%   493  197s
 29636  1895     cutoff   28      14912.0000 14848.2957  0.43%   490  200s

Cutting planes:
  Gomory: 3
  Cover: 124
  Clique: 168
  MIR: 359
  StrongCG: 174
  Flow cover: 60
  GUB cover: 110
  Inf proof: 10
  Zero half: 15
  Mod-K: 4

Explored 30293 nodes (14804051 simplex iterations) in 200.01 seconds (654.08 work units)
Thread count was 8 (of 8 available processors)

Solution count 10: 14912 14976 15040 ... 15968

Time limit reached
Best objective 1.491200000000e+04, best bound 1.486400000000e+04, gap 0.3219%

Gurobi 9.5.2 (mac64[arm]) logging started Mon Apr 24 17:45:47 2023

Set parameter LogFile to value "Java/output/iterative_model/scenario_seed_3_nJob_50_machineCount_1/mip_increment_2/log.txt"
Gurobi Optimizer version 9.5.2 build v9.5.2rc0 (mac64[arm])
Thread count: 8 physical cores, 8 logical processors, using up to 8 threads
Optimize a model with 1472 rows, 8296 columns and 63070 nonzeros
Model fingerprint: 0x3a418485
Variable types: 0 continuous, 8296 integer (8296 binary)
Coefficient statistics:
  Matrix range     [1e+00, 5e+02]
  Objective range  [4e+02, 4e+06]
  Bounds range     [1e+00, 1e+00]
  RHS range        [1e+00, 1e+00]
Found heuristic solution: objective 1.217092e+07
Presolve removed 320 rows and 336 columns
Presolve time: 0.07s
Presolved: 1152 rows, 7960 columns, 60069 nonzeros
Variable types: 0 continuous, 7960 integer (7958 binary)
Found heuristic solution: objective 1.064076e+07

Root relaxation: objective 1.036800e+04, 2278 iterations, 0.07 seconds (0.14 work units)

    Nodes    |    Current Node    |     Objective Bounds      |     Work
 Expl Unexpl |  Obj  Depth IntInf | Incumbent    BestBd   Gap | It/Node Time

     0     0 10368.0000    0   65 1.0641e+07 10368.0000   100%     -    0s
H    0     0                    4490948.0000 10368.0000   100%     -    0s
H    0     0                    3987964.0000 10368.0000   100%     -    0s
H    0     0                    2381268.0000 10368.0000   100%     -    0s
H    0     0                    822108.00000 10371.1806  98.7%     -    0s
     0     0 10371.1806    0   62 822108.000 10371.1806  98.7%     -    0s
H    0     0                    10884.000000 10371.1806  4.71%     -    0s
     0     0 10383.2386    0  115 10884.0000 10383.2386  4.60%     -    0s
     0     0 10383.2386    0   76 10884.0000 10383.2386  4.60%     -    0s
H    0     0                    10836.000000 10383.2386  4.18%     -    0s
     0     0 10444.6681    0  105 10836.0000 10444.6681  3.61%     -    0s
H    0     0                    10820.000000 10444.6681  3.47%     -    0s
     0     0 10444.6681    0  113 10820.0000 10444.6681  3.47%     -    0s
H    0     0                    10804.000000 10444.6681  3.33%     -    0s
     0     0 10455.9277    0  116 10804.0000 10455.9277  3.22%     -    0s
H    0     0                    10788.000000 10455.9277  3.08%     -    0s
     0     0 10456.0390    0  126 10788.0000 10456.0390  3.08%     -    0s
     0     0 10457.0875    0  131 10788.0000 10457.0875  3.07%     -    0s
     0     0 10457.0921    0  123 10788.0000 10457.0921  3.07%     -    0s
     0     0 10474.7229    0  135 10788.0000 10474.7229  2.90%     -    0s
     0     0 10475.7899    0  126 10788.0000 10475.7899  2.89%     -    0s
     0     0 10476.5751    0  135 10788.0000 10476.5751  2.89%     -    0s
     0     0 10476.6132    0  142 10788.0000 10476.6132  2.89%     -    0s
     0     0 10476.6159    0  141 10788.0000 10476.6159  2.89%     -    0s
H    0     0                    10780.000000 10476.6159  2.81%     -    0s
     0     0 10489.8473    0  161 10780.0000 10489.8473  2.69%     -    0s
H    0     0                    10764.000000 10489.8473  2.55%     -    0s
     0     0 10494.9470    0  182 10764.0000 10494.9470  2.50%     -    0s
     0     0 10496.9579    0  182 10764.0000 10496.9579  2.48%     -    0s
     0     0 10497.3292    0  196 10764.0000 10497.3292  2.48%     -    0s
     0     0 10497.8594    0  196 10764.0000 10497.8594  2.47%     -    0s
     0     0 10498.0405    0  196 10764.0000 10498.0405  2.47%     -    0s
     0     0 10498.4543    0  198 10764.0000 10498.4543  2.47%     -    0s
     0     0 10498.9034    0  199 10764.0000 10498.9034  2.46%     -    0s
     0     0 10498.9678    0  195 10764.0000 10498.9678  2.46%     -    0s
     0     0 10498.9810    0  202 10764.0000 10498.9810  2.46%     -    0s
H    0     0                    10756.000000 10498.9810  2.39%     -    0s
     0     0 10502.5449    0  203 10756.0000 10502.5449  2.36%     -    0s
H    0     0                    10652.000000 10502.5449  1.40%     -    1s
     0     0 10503.8182    0  205 10652.0000 10503.8182  1.39%     -    1s
     0     0 10504.0832    0  215 10652.0000 10504.0832  1.39%     -    1s
     0     0 10504.1872    0  214 10652.0000 10504.1872  1.39%     -    1s
     0     0 10504.1937    0  214 10652.0000 10504.1937  1.39%     -    1s
     0     0 10508.4872    0  199 10652.0000 10508.4872  1.35%     -    1s
     0     0 10509.2286    0  198 10652.0000 10509.2286  1.34%     -    1s
     0     0 10509.2987    0  207 10652.0000 10509.2987  1.34%     -    1s
     0     0 10512.1221    0  203 10652.0000 10512.1221  1.31%     -    1s
     0     0 10512.8028    0  235 10652.0000 10512.8028  1.31%     -    1s
     0     0 10512.8948    0  247 10652.0000 10512.8948  1.31%     -    1s
     0     0 10517.6611    0  258 10652.0000 10517.6611  1.26%     -    1s
     0     0 10519.3110    0  267 10652.0000 10519.3110  1.25%     -    1s
     0     0 10519.6993    0  267 10652.0000 10519.6993  1.24%     -    1s
     0     0 10519.8004    0  273 10652.0000 10519.8004  1.24%     -    1s
     0     0 10521.9925    0  272 10652.0000 10521.9925  1.22%     -    1s
     0     0 10523.1217    0  278 10652.0000 10523.1217  1.21%     -    1s
     0     0 10523.3165    0  283 10652.0000 10523.3165  1.21%     -    1s
     0     0 10523.3692    0  279 10652.0000 10523.3692  1.21%     -    1s
     0     0 10525.5480    0  280 10652.0000 10525.5480  1.19%     -    1s
     0     0 10526.3322    0  280 10652.0000 10526.3322  1.18%     -    1s
     0     0 10526.4284    0  288 10652.0000 10526.4284  1.18%     -    1s
     0     0 10529.5427    0  290 10652.0000 10529.5427  1.15%     -    1s
     0     0 10530.2527    0  293 10652.0000 10530.2527  1.14%     -    1s
     0     0 10530.5231    0  293 10652.0000 10530.5231  1.14%     -    1s
     0     0 10530.8679    0  292 10652.0000 10530.8679  1.14%     -    1s
     0     0 10530.9022    0  297 10652.0000 10530.9022  1.14%     -    1s
     0     0 10532.5045    0  287 10652.0000 10532.5045  1.12%     -    1s
H    0     0                    10636.000000 10532.5045  0.97%     -    1s
     0     0 10533.1185    0  302 10636.0000 10533.1185  0.97%     -    1s
     0     0 10533.2371    0  306 10636.0000 10533.2371  0.97%     -    1s
     0     0 10536.2649    0  291 10636.0000 10536.2649  0.94%     -    1s
H    0     0                    10628.000000 10536.2649  0.86%     -    1s
     0     0 10537.2650    0  292 10628.0000 10537.2650  0.85%     -    1s
     0     0 10537.9092    0  313 10628.0000 10537.9092  0.85%     -    1s
     0     0 10538.0484    0  325 10628.0000 10538.0484  0.85%     -    1s
     0     0 10539.9898    0  322 10628.0000 10539.9898  0.83%     -    1s
     0     0 10540.5041    0  315 10628.0000 10540.5041  0.82%     -    1s
     0     0 10540.6993    0  330 10628.0000 10540.6993  0.82%     -    1s
     0     0 10540.7967    0  336 10628.0000 10540.7967  0.82%     -    1s
     0     0 10542.2241    0  339 10628.0000 10542.2241  0.81%     -    1s
     0     0 10542.5405    0  330 10628.0000 10542.5405  0.80%     -    1s
     0     0 10542.5908    0  323 10628.0000 10542.5908  0.80%     -    1s
     0     0 10544.4537    0  322 10628.0000 10544.4537  0.79%     -    1s
     0     0 10544.8852    0  320 10628.0000 10544.8852  0.78%     -    1s
     0     0 10545.0057    0  337 10628.0000 10545.0057  0.78%     -    1s
     0     0 10546.0330    0  327 10628.0000 10546.0330  0.77%     -    1s
     0     0 10546.0330    0  317 10628.0000 10546.0330  0.77%     -    2s
     0     0 10546.1610    0   81 10628.0000 10546.1610  0.77%     -    2s
     0     0 10546.1610    0  172 10628.0000 10546.1610  0.77%     -    2s
     0     0 10546.1610    0  212 10628.0000 10546.1610  0.77%     -    2s
     0     0 10546.1610    0  258 10628.0000 10546.1610  0.77%     -    2s
     0     0 10546.1610    0  274 10628.0000 10546.1610  0.77%     -    2s
     0     0 10546.1610    0  290 10628.0000 10546.1610  0.77%     -    2s
     0     0 10546.1610    0  296 10628.0000 10546.1610  0.77%     -    2s
     0     0 10546.1610    0  311 10628.0000 10546.1610  0.77%     -    2s
     0     0 10546.2049    0  310 10628.0000 10546.2049  0.77%     -    2s
     0     0 10546.2900    0  322 10628.0000 10546.2900  0.77%     -    2s
     0     0 10546.3580    0  317 10628.0000 10546.3580  0.77%     -    2s
     0     0 10546.3587    0  316 10628.0000 10546.3587  0.77%     -    2s
     0     0 10548.1107    0  315 10628.0000 10548.1107  0.75%     -    2s
     0     0 10548.5780    0  318 10628.0000 10548.5780  0.75%     -    2s
     0     0 10548.6554    0  314 10628.0000 10548.6554  0.75%     -    2s
     0     0 10552.4555    0  333 10628.0000 10552.4555  0.71%     -    2s
     0     0 10553.1044    0  339 10628.0000 10553.1044  0.70%     -    2s
     0     0 10554.0566    0  325 10628.0000 10554.0566  0.70%     -    2s
     0     0 10554.1465    0  329 10628.0000 10554.1465  0.69%     -    2s
H    0     0                    10620.000000 10554.1465  0.62%     -    2s
     0     0 10555.4025    0  328 10620.0000 10555.4025  0.61%     -    2s
H    0     0                    10612.000000 10555.4025  0.53%     -    2s
     0     0 10556.1030    0  334 10612.0000 10556.1030  0.53%     -    2s
     0     0 10556.4416    0  332 10612.0000 10556.4416  0.52%     -    2s
H    0     0                    10588.000000 10556.4416  0.30%     -    2s
     0     0 10556.6714    0  331 10588.0000 10556.6714  0.30%     -    2s
     0     0 10556.7217    0  329 10588.0000 10556.7217  0.30%     -    2s
     0     0 10559.0895    0  317 10588.0000 10559.0895  0.27%     -    2s
H    0     0                    10580.000000 10559.0895  0.20%     -    2s
H    0     0                    10572.000000 10559.0895  0.12%     -    2s
     0     0 10560.4002    0  309 10572.0000 10560.4002  0.11%     -    2s
     0     0 10560.7743    0  314 10572.0000 10560.7743  0.11%     -    2s
     0     0 10560.8924    0  320 10572.0000 10560.8924  0.11%     -    2s
     0     0 10561.9094    0  321 10572.0000 10561.9094  0.10%     -    2s
     0     0 10561.9094    0   67 10572.0000 10561.9094  0.10%     -    3s
     0     0 10561.9094    0  113 10572.0000 10561.9094  0.10%     -    3s
     0     0 10561.9094    0  128 10572.0000 10561.9094  0.10%     -    3s
     0     0 10561.9094    0  127 10572.0000 10561.9094  0.10%     -    3s
     0     0     cutoff    0      10572.0000 10572.0000  0.00%     -    3s

Cutting planes:
  Gomory: 2
  Cover: 1
  Clique: 18
  MIR: 55
  StrongCG: 21
  GUB cover: 39
  Zero half: 3

Explored 1 nodes (31460 simplex iterations) in 3.14 seconds (4.67 work units)
Thread count was 8 (of 8 available processors)

Solution count 10: 10572 10580 10588 ... 10764

Optimal solution found (tolerance 1.00e-04)
Best objective 1.057200000000e+04, best bound 1.057200000000e+04, gap 0.0000%

Gurobi 9.5.2 (mac64[arm]) logging started Mon Apr 24 17:45:50 2023

Set parameter LogFile to value "Java/output/iterative_model/scenario_seed_3_nJob_50_machineCount_1/mip_increment_2/log.txt"
Gurobi Optimizer version 9.5.2 build v9.5.2rc0 (mac64[arm])
Thread count: 8 physical cores, 8 logical processors, using up to 8 threads
Optimize a model with 1490 rows, 6835 columns and 52906 nonzeros
Model fingerprint: 0xb07b11aa
Variable types: 0 continuous, 6835 integer (6835 binary)
Coefficient statistics:
  Matrix range     [1e+00, 5e+02]
  Objective range  [2e+02, 5e+05]
  Bounds range     [1e+00, 1e+00]
  RHS range        [1e+00, 1e+00]
Presolve removed 676 rows and 697 columns
Presolve time: 0.05s
Presolved: 814 rows, 6138 columns, 46086 nonzeros
Variable types: 0 continuous, 6138 integer (6126 binary)

Root relaxation: objective 1.601504e+04, 3094 iterations, 0.09 seconds (0.17 work units)

    Nodes    |    Current Node    |     Objective Bounds      |     Work
 Expl Unexpl |  Obj  Depth IntInf | Incumbent    BestBd   Gap | It/Node Time

     0     0 16015.0414    0  110          - 16015.0414      -     -    0s
H    0     0                    541729.00000 16015.0414  97.0%     -    0s
H    0     0                    411533.00000 16015.0414  96.1%     -    0s
H    0     0                    216703.00000 16540.2703  92.4%     -    0s
     0     0 16540.2703    0  219 216703.000 16540.2703  92.4%     -    0s
H    0     0                    215243.00000 16540.2703  92.3%     -    0s
     0     0 16621.8159    0  219 215243.000 16621.8159  92.3%     -    0s
     0     0 16621.8159    0  220 215243.000 16621.8159  92.3%     -    0s
H    0     0                    53605.000000 16910.0155  68.5%     -    0s
     0     0 16910.0155    0  236 53605.0000 16910.0155  68.5%     -    0s
     0     0 16913.0493    0  236 53605.0000 16913.0493  68.4%     -    0s
     0     0 16913.0493    0  241 53605.0000 16913.0493  68.4%     -    0s
H    0     0                    53525.000000 16913.0493  68.4%     -    0s
     0     0 18156.9874    0  260 53525.0000 18156.9874  66.1%     -    0s
H    0     0                    38269.000000 18156.9874  52.6%     -    0s
     0     0 18347.6449    0  249 38269.0000 18347.6449  52.1%     -    0s
     0     0 18366.0538    0  259 38269.0000 18366.0538  52.0%     -    1s
     0     0 18366.0689    0  255 38269.0000 18366.0689  52.0%     -    1s
     0     0 19771.8827    0  266 38269.0000 19771.8827  48.3%     -    1s
     0     0 21023.9260    0  277 38269.0000 21023.9260  45.1%     -    1s
     0     0 21383.5202    0  281 38269.0000 21383.5202  44.1%     -    1s
     0     0 21422.6594    0  279 38269.0000 21422.6594  44.0%     -    1s
     0     0 21426.3549    0  274 38269.0000 21426.3549  44.0%     -    1s
     0     0 21435.3396    0  282 38269.0000 21435.3396  44.0%     -    1s
     0     0 21435.9571    0  294 38269.0000 21435.9571  44.0%     -    1s
     0     0 22576.3208    0  306 38269.0000 22576.3208  41.0%     -    1s
H    0     0                    38253.000000 22576.3208  41.0%     -    1s
     0     0 22805.0746    0  334 38253.0000 22805.0746  40.4%     -    1s
     0     0 22839.4631    0  348 38253.0000 22839.4631  40.3%     -    1s
     0     0 22863.5933    0  353 38253.0000 22863.5933  40.2%     -    1s
     0     0 22874.5288    0  354 38253.0000 22874.5288  40.2%     -    1s
     0     0 22877.8219    0  355 38253.0000 22877.8219  40.2%     -    1s
     0     0 22877.8515    0  364 38253.0000 22877.8515  40.2%     -    1s
     0     0 24066.4720    0  352 38253.0000 24066.4720  37.1%     -    2s
     0     0 24066.4720    0  128 38253.0000 24066.4720  37.1%     -    2s
     0     0 24066.4720    0  248 38253.0000 24066.4720  37.1%     -    2s
     0     0 24066.4720    0  269 38253.0000 24066.4720  37.1%     -    2s
     0     0 24066.4720    0  281 38253.0000 24066.4720  37.1%     -    2s
     0     0 24066.4720    0  329 38253.0000 24066.4720  37.1%     -    2s
     0     0 24092.1619    0  350 38253.0000 24092.1619  37.0%     -    3s
     0     0 24092.3038    0  352 38253.0000 24092.3038  37.0%     -    3s
     0     0 24661.5279    0  352 38253.0000 24661.5279  35.5%     -    3s
     0     0 24839.3188    0  319 38253.0000 24839.3188  35.1%     -    3s
     0     0 24891.9362    0  319 38253.0000 24891.9362  34.9%     -    3s
     0     0 25001.8485    0  353 38253.0000 25001.8485  34.6%     -    3s
     0     0 25014.3607    0  337 38253.0000 25014.3607  34.6%     -    3s
     0     0 25014.6859    0  349 38253.0000 25014.6859  34.6%     -    3s
     0     0 25273.1311    0  291 38253.0000 25273.1311  33.9%     -    3s
H    0     0                    25431.000000 25273.1311  0.62%     -    3s
     0     0 25300.3386    0  333 25431.0000 25300.3386  0.51%     -    3s
     0     0 25304.4233    0  350 25431.0000 25304.4233  0.50%     -    3s
     0     0 25359.6350    0  272 25431.0000 25359.6350  0.28%     -    3s
     0     0 25359.6350    0   80 25431.0000 25359.6350  0.28%     -    3s
     0     0 25373.0800    0   36 25431.0000 25373.0800  0.23%     -    3s
H    0     0                    25395.000000 25373.0800  0.09%     -    3s
H    0     0                    25391.000000 25373.0800  0.07%     -    3s
     0     0 25378.1556    0   28 25391.0000 25378.1556  0.05%     -    3s
     0     0 25378.1556    0   29 25391.0000 25378.1556  0.05%     -    4s
     0     0 25381.4871    0   40 25391.0000 25381.4871  0.04%     -    4s
     0     0 25387.0000    0    4 25391.0000 25387.0000  0.02%     -    4s

Cutting planes:
  Gomory: 1
  Clique: 8
  GUB cover: 1
  RLT: 2

Explored 1 nodes (50964 simplex iterations) in 4.03 seconds (7.35 work units)
Thread count was 8 (of 8 available processors)

Solution count 10: 25391 25391 25395 ... 53605

Optimal solution found (tolerance 1.00e-04)
Best objective 2.539100000000e+04, best bound 2.539100000000e+04, gap 0.0000%

Gurobi 9.5.2 (mac64[arm]) logging started Mon Apr 24 17:45:54 2023

Set parameter LogFile to value "Java/output/iterative_model/scenario_seed_3_nJob_50_machineCount_1/mip_increment_2/log.txt"
Gurobi Optimizer version 9.5.2 build v9.5.2rc0 (mac64[arm])
Thread count: 8 physical cores, 8 logical processors, using up to 8 threads
Optimize a model with 3034 rows, 67104 columns and 841221 nonzeros
Model fingerprint: 0x8545a3a8
Variable types: 0 continuous, 67104 integer (67104 binary)
Coefficient statistics:
  Matrix range     [1e+00, 5e+02]
  Objective range  [3e+00, 2e+07]
  Bounds range     [1e+00, 1e+00]
  RHS range        [1e+00, 1e+00]

Warning: Completing partial solution with 66960 unfixed non-continuous variables out of 67104
User MIP start produced solution with objective 29979 (0.05s)
Loaded user MIP start with objective 29979

Presolve removed 31 rows and 3423 columns
Presolve time: 0.81s
Presolved: 3003 rows, 63681 columns, 787251 nonzeros
Variable types: 0 continuous, 63681 integer (63651 binary)

Root simplex log...

Iteration    Objective       Primal Inf.    Dual Inf.      Time
   25695    2.3651966e+04   1.485702e+05   0.000000e+00      5s
   52175    2.5959040e+04   5.821187e+04   0.000000e+00     10s
   74153    2.6637304e+04   1.764899e+01   0.000000e+00     15s
   74257    2.6637316e+04   0.000000e+00   0.000000e+00     15s

Root relaxation: objective 2.663732e+04, 74257 iterations, 14.15 seconds (37.34 work units)

    Nodes    |    Current Node    |     Objective Bounds      |     Work
 Expl Unexpl |  Obj  Depth IntInf | Incumbent    BestBd   Gap | It/Node Time

     0     0 26637.3160    0  493 29979.0000 26637.3160  11.1%     -   16s
H    0     0                    29533.000000 26637.3160  9.80%     -   16s
     0     0 26653.0880    0  727 29533.0000 26653.0880  9.75%     -   25s
     0     0 26653.0880    0  497 29533.0000 26653.0880  9.75%     -   40s
H    0     0                    29475.000000 26653.0880  9.57%     -   41s
H    0     0                    29300.000000 26653.0880  9.03%     -   46s
H    0     0                    29285.000000 26653.0880  8.99%     -   46s
H    0     0                    29248.000000 26653.0880  8.87%     -   46s
     0     0 26660.9767    0  767 29248.0000 26660.9767  8.85%     -   46s
H    0     0                    29186.000000 26660.9767  8.65%     -   47s
     0     0 26664.8186    0  747 29186.0000 26664.8186  8.64%     -   50s
     0     0 26664.8186    0  738 29186.0000 26664.8186  8.64%     -   50s
H    0     0                    29139.000000 26664.8186  8.49%     -   57s
     0     0 26693.1509    0  772 29139.0000 26693.1509  8.39%     -   57s
H    0     0                    29119.000000 26693.1509  8.33%     -   57s
H    0     0                    29034.000000 26693.1509  8.06%     -   57s
     0     0 26704.6796    0  907 29034.0000 26704.6796  8.02%     -   62s
     0     0 26706.7043    0  922 29034.0000 26706.7043  8.02%     -   68s
     0     0 26706.9856    0  943 29034.0000 26706.9856  8.01%     -   69s
     0     0 26707.0167    0  953 29034.0000 26707.0167  8.01%     -   69s
     0     0 26707.0227    0  954 29034.0000 26707.0227  8.01%     -   69s
     0     0 26723.5504    0  985 29034.0000 26723.5504  7.96%     -   78s
H    0     0                    28924.000000 26723.5504  7.61%     -   78s
     0     0 26732.7363    0 1087 28924.0000 26732.7363  7.58%     -   88s
     0     0 26733.7517    0 1112 28924.0000 26733.7517  7.57%     -   89s
     0     0 26733.9172    0 1107 28924.0000 26733.9172  7.57%     -   90s
     0     0 26733.9405    0 1138 28924.0000 26733.9405  7.57%     -   90s
     0     0 26743.5467    0 1147 28924.0000 26743.5467  7.54%     -   96s
H    0     0                    28919.000000 26743.5467  7.52%     -   97s
     0     0 26749.9266    0 1176 28919.0000 26749.9266  7.50%     -  104s
     0     0 26754.1883    0 1204 28919.0000 26754.1883  7.49%     -  110s
     0     0 26755.5168    0 1259 28919.0000 26755.5168  7.48%     -  113s
     0     0 26755.6893    0 1271 28919.0000 26755.6893  7.48%     -  114s
     0     0 26755.7447    0 1286 28919.0000 26755.7447  7.48%     -  114s
     0     0 26755.7462    0 1275 28919.0000 26755.7462  7.48%     -  114s
     0     0 26772.6528    0 1290 28919.0000 26772.6528  7.42%     -  124s
H    0     0                    28418.000000 26772.6528  5.79%     -  125s
     0     0 26789.6261    0 1373 28418.0000 26789.6261  5.73%     -  135s
     0     0 26797.4284    0 1358 28418.0000 26797.4284  5.70%     -  144s
     0     0 26801.4321    0 1404 28418.0000 26801.4321  5.69%     -  150s
     0     0 26803.5389    0 1377 28418.0000 26803.5389  5.68%     -  155s
     0     0 26803.6301    0 1402 28418.0000 26803.6301  5.68%     -  155s
     0     0 26803.6524    0 1404 28418.0000 26803.6524  5.68%     -  155s
     0     0 26818.8429    0 1304 28418.0000 26818.8429  5.63%     -  172s
     0     0 26833.7788    0 1345 28418.0000 26833.7788  5.57%     -  182s
     0     0 26836.0529    0 1394 28418.0000 26836.0529  5.57%     -  189s
     0     0 26838.3191    0 1399 28418.0000 26838.3191  5.56%     -  197s
     0     0 26839.0557    0 1423 28418.0000 26839.0557  5.56%     -  201s
     0     0 26839.1726    0 1421 28418.0000 26839.1726  5.56%     -  202s
     0     0 26839.1943    0 1447 28418.0000 26839.1943  5.56%     -  203s
     0     0 26846.0764    0 1452 28418.0000 26846.0764  5.53%     -  215s
     0     0 26850.7487    0 1461 28418.0000 26850.7487  5.51%     -  225s
     0     0 26852.1765    0 1489 28418.0000 26852.1765  5.51%     -  231s
     0     0 26853.0384    0 1484 28418.0000 26853.0384  5.51%     -  237s
     0     0 26853.3068    0 1533 28418.0000 26853.3068  5.51%     -  239s
     0     0 26853.4834    0 1532 28418.0000 26853.4834  5.51%     -  241s
     0     0 26853.6014    0 1552 28418.0000 26853.6014  5.50%     -  243s
     0     0 26857.5465    0 1529 28418.0000 26857.5465  5.49%     -  256s
H    0     0                    28372.000000 26857.5465  5.34%     -  256s
     0     0 26859.7182    0 1577 28372.0000 26859.7182  5.33%     -  267s
     0     0 26863.4137    0 1575 28372.0000 26863.4137  5.32%     -  277s
     0     0 26864.0492    0 1591 28372.0000 26864.0492  5.31%     -  281s
     0     0 26864.2506    0 1583 28372.0000 26864.2506  5.31%     -  283s
     0     0 26864.3421    0 1630 28372.0000 26864.3421  5.31%     -  285s
     0     0 26872.5176    0 1587 28372.0000 26872.5176  5.29%     -  298s
     0     0 26875.6798    0 1566 28372.0000 26875.6798  5.27%     -  307s
     0     0 26876.8414    0 1606 28372.0000 26876.8414  5.27%     -  312s
     0     0 26882.0557    0 1580 28372.0000 26882.0557  5.25%     -  321s
     0     0 26882.8172    0 1616 28372.0000 26882.8172  5.25%     -  325s
     0     0 26883.2152    0 1618 28372.0000 26883.2152  5.25%     -  328s
     0     0 26883.2377    0 1624 28372.0000 26883.2377  5.25%     -  328s
     0     0 26893.6560    0 1562 28372.0000 26893.6560  5.21%     -  340s
H    0     0                    28351.000000 26893.6560  5.14%     -  340s
     0     0 26896.7740    0 1582 28351.0000 26896.7740  5.13%     -  347s
     0     0 26898.5017    0 1642 28351.0000 26898.5017  5.12%     -  352s
     0     0 26899.6466    0 1658 28351.0000 26899.6466  5.12%     -  358s
     0     0 26900.7827    0 1637 28351.0000 26900.7827  5.12%     -  362s
     0     0 26901.2221    0 1664 28351.0000 26901.2221  5.11%     -  366s
     0     0 26901.3515    0 1681 28351.0000 26901.3515  5.11%     -  367s
     0     0 26907.9944    0 1661 28351.0000 26907.9944  5.09%     -  380s
H    0     0                    28347.000000 26907.9944  5.08%     -  381s
H    0     0                    28345.000000 26907.9944  5.07%     -  391s

Cutting planes:
  Cover: 1
  Clique: 269
  MIR: 207
  StrongCG: 124
  GUB cover: 205
  RLT: 2

Explored 1 nodes (808011 simplex iterations) in 391.01 seconds (1030.09 work units)
Thread count was 8 (of 8 available processors)

Solution count 10: 28345 28347 28351 ... 29139

Time limit reached
Best objective 2.834500000000e+04, best bound 2.690800000000e+04, gap 5.0697%
